*SENSE:Maximize
NAME          MODEL
ROWS
 N  OBJ
 E  C0000000
 G  C0000001
 G  C0000002
 L  C0000003
 G  C0000004
 G  C0000005
 L  C0000006
 G  C0000007
 G  C0000008
 L  C0000009
 G  C0000010
 G  C0000011
 L  C0000012
 L  C0000013
 L  C0000014
 G  C0000015
 L  C0000016
 L  C0000017
 G  C0000018
 L  C0000019
 L  C0000020
 G  C0000021
COLUMNS
    X0000000  OBJ        1.000000000000e+00
    MARK      'MARKER'                 'INTORG'
    X0000001  C0000000   1.000000000000e+00
    X0000001  C0000002  -1.000000000000e+00
    X0000001  C0000003  -1.000000000000e+00
    MARK      'MARKER'                 'INTEND'
    MARK      'MARKER'                 'INTORG'
    X0000002  C0000001  -1.000000000000e+00
    X0000002  C0000003  -1.000000000000e+00
    MARK      'MARKER'                 'INTEND'
    MARK      'MARKER'                 'INTORG'
    X0000005  C0000013   1.000000000000e+00
    X0000005  C0000014   1.000000000000e+00
    X0000005  C0000015   1.000000000000e+00
    X0000005  C0000016   1.000000000000e+00
    X0000005  C0000017   1.000000000000e+00
    X0000005  C0000018   1.000000000000e+00
    X0000005  C0000019   1.000000000000e+00
    X0000005  C0000020   1.000000000000e+00
    X0000005  C0000021   1.000000000000e+00
    MARK      'MARKER'                 'INTEND'
    MARK      'MARKER'                 'INTORG'
    X0000005  C0000013   1.000000000000e+00
    X0000005  C0000014   1.000000000000e+00
    X0000005  C0000015   1.000000000000e+00
    X0000005  C0000016   1.000000000000e+00
    X0000005  C0000017   1.000000000000e+00
    X0000005  C0000018   1.000000000000e+00
    X0000005  C0000019   1.000000000000e+00
    X0000005  C0000020   1.000000000000e+00
    X0000005  C0000021   1.000000000000e+00
    MARK      'MARKER'                 'INTEND'
    MARK      'MARKER'                 'INTORG'
    X0000005  C0000013   1.000000000000e+00
    X0000005  C0000014   1.000000000000e+00
    X0000005  C0000015   1.000000000000e+00
    X0000005  C0000016   1.000000000000e+00
    X0000005  C0000017   1.000000000000e+00
    X0000005  C0000018   1.000000000000e+00
    X0000005  C0000019   1.000000000000e+00
    X0000005  C0000020   1.000000000000e+00
    X0000005  C0000021   1.000000000000e+00
    MARK      'MARKER'                 'INTEND'
    MARK      'MARKER'                 'INTORG'
    X0000006  C0000007  -1.000000000000e+00
    X0000006  C0000009  -1.000000000000e+00
    MARK      'MARKER'                 'INTEND'
    MARK      'MARKER'                 'INTORG'
    X0000008  C0000005  -1.000000000000e+00
    X0000008  C0000006  -1.000000000000e+00
    X0000008  C0000008  -1.000000000000e+00
    X0000008  C0000009  -1.000000000000e+00
    MARK      'MARKER'                 'INTEND'
    MARK      'MARKER'                 'INTORG'
    X0000008  C0000005  -1.000000000000e+00
    X0000008  C0000006  -1.000000000000e+00
    X0000008  C0000008  -1.000000000000e+00
    X0000008  C0000009  -1.000000000000e+00
    MARK      'MARKER'                 'INTEND'
    MARK      'MARKER'                 'INTORG'
    X0000009  C0000011  -1.000000000000e+00
    X0000009  C0000012  -1.000000000000e+00
    MARK      'MARKER'                 'INTEND'
    MARK      'MARKER'                 'INTORG'
    X0000010  C0000000   1.000000000000e+00
    MARK      'MARKER'                 'INTEND'
    MARK      'MARKER'                 'INTORG'
    X0000011  C0000001   1.000000000000e+00
    X0000011  C0000002   1.000000000000e+00
    X0000011  C0000003   1.000000000000e+00
    X0000011  C0000013  -1.000000000000e+00
    X0000011  C0000015  -1.000000000000e+00
    MARK      'MARKER'                 'INTEND'
    MARK      'MARKER'                 'INTORG'
    X0000012  C0000010   1.000000000000e+00
    X0000012  C0000011   1.000000000000e+00
    X0000012  C0000012   1.000000000000e+00
    X0000012  C0000020  -1.000000000000e+00
    X0000012  C0000021  -1.000000000000e+00
    MARK      'MARKER'                 'INTEND'
    MARK      'MARKER'                 'INTORG'
    X0000013  C0000004   1.000000000000e+00
    X0000013  C0000005   1.000000000000e+00
    X0000013  C0000006   1.000000000000e+00
    X0000013  C0000014  -1.000000000000e+00
    X0000013  C0000015  -1.000000000000e+00
    MARK      'MARKER'                 'INTEND'
    MARK      'MARKER'                 'INTORG'
    X0000014  C0000007   1.000000000000e+00
    X0000014  C0000008   1.000000000000e+00
    X0000014  C0000009   1.000000000000e+00
    X0000014  C0000017  -1.000000000000e+00
    X0000014  C0000018  -1.000000000000e+00
    MARK      'MARKER'                 'INTEND'
RHS
    RHS       C0000000   1.000000000000e+00
    RHS       C0000001   0.000000000000e+00
    RHS       C0000002   0.000000000000e+00
    RHS       C0000003   0.000000000000e+00
    RHS       C0000004   0.000000000000e+00
    RHS       C0000005   0.000000000000e+00
    RHS       C0000006   0.000000000000e+00
    RHS       C0000007   0.000000000000e+00
    RHS       C0000008   0.000000000000e+00
    RHS       C0000009   0.000000000000e+00
    RHS       C0000010   0.000000000000e+00
    RHS       C0000011   0.000000000000e+00
    RHS       C0000012   0.000000000000e+00
    RHS       C0000013   0.000000000000e+00
    RHS       C0000014   0.000000000000e+00
    RHS       C0000015  -1.000000000000e+00
    RHS       C0000016   0.000000000000e+00
    RHS       C0000017   0.000000000000e+00
    RHS       C0000018  -1.000000000000e+00
    RHS       C0000019   0.000000000000e+00
    RHS       C0000020   0.000000000000e+00
    RHS       C0000021  -1.000000000000e+00
BOUNDS
 FX BND       X0000000   0.000000000000e+00
 BV BND       X0000001
 BV BND       X0000002
 BV BND       X0000005
 BV BND       X0000005
 BV BND       X0000005
 BV BND       X0000006
 BV BND       X0000008
 BV BND       X0000008
 BV BND       X0000009
 BV BND       X0000010
 BV BND       X0000011
 BV BND       X0000012
 BV BND       X0000013
 BV BND       X0000014
ENDATA
